c Sudoku solution
p cnf 729 0
171 0
195 0
224 0
259 0
292 0
339 0
189 0
343 0
352 0
367 0
431 0
463 0
519 0
554 0
587 0
277 0
283 0
625 0
315 0
321 0
682 0
748 0
781 0
818 0
911 0
216 0
238 0
849 0
669 0
893 0
929 0
946 0
144 0
957 0
753 0
933 0
797 0
779 0
499 0
998 0
735 0
726 0
886 0
456 0
855 0
861 0
651 0
647 0
568 0
591 0
428 0
417 0
442 0
545 0
678 0
573 0
696 0
522 0
536 0
613 0
634 0
123 0
714 0
762 0
964 0
874 0
972 0
985 0
112 0
137 0
827 0
832 0
241 0
265 0
158 0
166 0
475 0
484 0
376 0
394 0
388 0
